NAME : netgen20-5_22
COMMENT : Generated using the function generateClusteredNetwork from the R-package netgen (Bossek,2015) - Number of clusters: 5
TYPE : TSP
DIMENSION : 20
EDGE_WEIGHT_TYPE : EUC_2D
NODE_COORD_SECTION
1 6.3600549408 31.9890697363
2 3.0006151599 40.0772335666
3 9.9164004296 29.9706223924
4 6.7667165059 38.947168086
5 51.5363810452 87.7102627724
6 53.8190618895 86.7644747567
7 55.7685186821 77.0415572566
8 53.0521137278 87.1527987505
9 85.4276207537 4.7814346754
10 78.851351646 10.872513381
11 64.6907372236 1.070500732
12 65.5742950077 0.5225438927
13 93.4691727719 56.937896074
14 96.5974946236 60.9550717325
15 86.7994967203 58.199127608
16 87.6996197114 71.6478462753
17 27.5326127179 46.4769760446
18 24.6691919608 46.440498905
19 27.4040784657 41.9129279323
20 21.6029579436 40.6826074232
EOF
